7 2 4 -1 0 9 -1 3 9 -1 
-1 10 7 2 6 2 -1 8 3 -1 
6 9 3 8 9 9 -1 0 10 -1 
10 10 7 7 10 4 3 6 2 -1 
10 1 10 9 4 7 9 2 -1 -1 
7 0 8 2 0 7 10 10 -1 -1 
1 8 1 5 1 10 7 1 10 -1 
6 9 -1 3 7 3 -1 4 9 -1 
-1 0 0 2 9 2 6 5 5 -1 
7 9 8 10 7 8 2 8 4 -1 
